import math
import numpy as np

set reference rhf

memory 45 GB

molecule becp {
    0 1
    symmetry c1

 C    3.442179099610    0.974374326026   -0.724655730578
 C    3.446949099610    0.971344326026    0.705804269422
 C    3.443839099610   -0.390045673974    1.144974269422
 C    3.437149099610   -1.228395673974   -0.014065730578
 C    3.436119099610   -0.385135673974   -1.169555730578
 C   -3.443840900390    0.390044326026   -1.144975730578
 C   -3.437140900390    1.228394326026    0.014064269422
 C   -3.436120900390    0.385144326026    1.169564269422
 C   -3.442180900390   -0.974375673974    0.724654269422
 C   -3.446950900390   -0.971345673974   -0.705805730578
 H    3.472959099610    1.858894326026   -1.364625730578
 H    3.482009099610    1.853144326026    1.349294269422
 H    3.476109099610   -0.729715673974    2.182504269422
 H    3.463409099610   -2.320265673974   -0.016465730578
 H    3.461459099610   -0.720415673974   -2.208705730578
 H   -3.476100900390    0.729714326026   -2.182495730578
 H   -3.463400900390    2.320264326026    0.016464269422
 H   -3.461460900390    0.720414326026    2.208704269422
 H   -3.472950900390   -1.858895673974    1.364624269422
 H   -3.482000900390   -1.853145673974   -1.349295730578
Mg    1.390449099610   -0.004675673974   -0.004645730578
Mg   -1.390450900390    0.004674326026    0.004644269422

}

set SCF_INITIAL_ACCELERATOR NONE
set CACHELEVEL 1

frequencies("ccsd/cc-pVDZ")
