import math
memory 24 GB
set reference uhf

molecule becp {
    -1 2
    symmetry c1

    C   3.4435077990   0.9441496367  -0.7535408370
    C   3.4481970534   0.9425868148   0.6788669271
    C   3.4520001422  -0.4205945795   1.1186447488
    C   3.4569696916  -1.2618137500  -0.0418304786
    C   3.4514582829  -0.4183872262  -1.1991032751
    C  -3.4531051538   1.0420618604  -0.6527788662
    C  -3.4466779681   1.0230698801   0.7797311131
    C  -3.4428472056  -0.3451901277   1.2026631314
    C  -3.4536290735  -1.1724120458   0.0321057122
    C  -3.4595683152  -0.3151399018  -1.1148105796
    H   3.4363246913   1.8278402191  -1.3921327347
    H   3.4265937801   1.8239698583   1.3190711184
    H   3.4525439026  -0.7593822065   2.1550577586
    H   3.4460135963  -2.3515637434  -0.0440015931
    H   3.4407844924  -0.7537668847  -2.2361942448
    H  -3.4563438983   1.9331564999  -1.2809389126
    H  -3.4229173490   1.8967550560   1.4301822156
    H  -3.4293258986  -0.6966185557   2.2347905557
    H  -3.4373410950  -2.2620962097   0.0162875789
    H  -3.4585506915  -0.6378475120  -2.1560694624
    Mg   1.2622048322  -0.0474279597  -0.0392749528
    Mg  -1.3802547353   0.0431456647   0.0165481467
}

set OPT_TYPE TS
set GEOM_MAXITER 150
set CACHELEVEL 1
set PRINT 2

E, wfn = optimize("ccsd/cc-pVDZ", return_wfn = True)

becp.save_xyz_file("out/magnesium/dimagnesocene-.xyz", True)

fstr = ""
with open("out/magnesium/dimagnesocene-.xyz", "r") as fp :
    for line in fp :
        newline = line[0]
        for i in range(1, len(line)) :
            if line[i - 1].isupper() and line[i].isupper() :
                newline += line[i].lower()
            else :
                newline += line[i]
        fstr += newline

with open("out/magnesium/dimagnesocene-.xyz", "w") as fp :
    print(fstr, file = fp)

wfn.to_file("out/magnesium/dimagnesocene-.wf")
fchk(wfn, "out/magnesium/dimagnesocene-.fchk")
