import math

memory 24 GB
set reference uhf

molecule becp {
    1 2
    symmetry c1
 C    3.536529087200    0.978331989094   -0.728062458191
 C    3.541320798187    0.975287880190    0.708600109191
 C    3.538197877417   -0.391999998967    1.149673475726
 C    3.531476124684   -1.233986228784   -0.014390762943
 C    3.530444724645   -0.387074478654   -1.174895364332
 C   -3.538197510122    0.391999471105   -1.149673759112
 C   -3.531474432800    1.233986872788    0.014389592621
 C   -3.530444101832    0.387076414067    1.174895120626
 C   -3.536530353680   -0.978330547275    0.728063605035
 C   -3.541322224606   -0.975287948241   -0.708598919106
 H    3.596536754384    1.861751476879   -1.367400399184
 H    3.605604383651    1.855990943971    1.351261490138
 H    3.599694738965   -0.731389946934    2.185924658459
 H    3.586974785903   -2.324718821258   -0.016886983653
 H    3.585022998820   -0.722069257322   -2.212962619995
 H   -3.599693992363    0.731388456083   -2.185925287013
 H   -3.586971621381    2.324719552921    0.016884692010
 H   -3.585021875462    0.722072313876    2.212962044203
 H   -3.596539164806   -1.861749274123    1.367402494970
 H   -3.605607059132   -1.855991632765   -1.351259330511
Mg    1.598682884730   -0.005375700468   -0.005340918145
Mg   -1.598682877112    0.005373826590    0.005340566278

}

set CC_TYPE DF
set CACHELEVEL 1

frequencies("ccsd/cc-pVDZ")



