import math
import numpy as np

memory 24 GB

set reference uhf

molecule becp {
    2 1
    symmetry c1
C            6.061792767039     1.870632505132    -1.335379049022
         C            6.044675495320     1.818778167008     1.381897518366
         C            6.016290884331    -0.797430600385     2.175988110731
         C            6.028306492606    -2.324380766227    -0.049745481403
         C            6.055338097311    -0.692697711980    -2.215355403504
         C           -6.021538368976     1.806261386887    -1.374621666213
         C           -6.055622597339     1.832096963724     1.355393500649
         C           -6.028990319427    -0.776947313680     2.218524143967
         C           -6.013485277768    -2.368436273952     0.017167487014
         C           -5.976400476192    -0.826675310162    -2.191247452039
         H            6.115784404705     3.576890325457    -2.524320513850
         H            6.094965164963     3.477804446776     2.636214292750
         H            6.003376874626    -1.498136036639     4.134944657066
         H            6.024742757020    -4.404581671641    -0.086994936522
         H            6.054230440371    -1.303971900931    -4.204455753086
         H           -6.072131807586     3.473746568522    -2.617178196153
         H           -6.124025357728     3.525931206999     2.562449842342
         H           -6.044193824493    -1.437737146527     4.190684634257
         H           -5.988393401232    -4.449848574234     0.026568261156
         H           -5.957725826069    -1.529036480671    -4.149039243288
         MG           2.500012267560     0.086054211693    -0.001771755518
         MG          -2.563017361804     0.089057979054     0.006601759602
         H           -0.022610522000     2.365738123238     0.000948663051
         H            0.000306680917    -1.988037467318     0.078667774739
         H            0.007929922866     0.642056561897    -2.041147434677
         H            0.093073736040     0.844559918392     2.084629916719
}

set CACHELEVEL 0
set SOSCF
E, wfn = optimize("hf/sto-3g", return_wfn = True)

becp.save_xyz_file("out/magnesium/dimagnesocene_h4.xyz", True)

fstr = ""
with open("out/magnesium/dimagnesocene_h4.xyz", "r") as fp :
    for line in fp :
        newline = line[0]
        for i in range(1, len(line)) :
            if line[i - 1].isupper() and line[i].isupper() :
                newline += line[i].lower()
            else :
                newline += line[i]
        fstr += newline

with open("out/magnesium/dimagnesocene_h4.xyz", "w") as fp :
    print(fstr, file = fp)

wfn.to_file("out/magnesium/dimagnesocene_h4.wf")
fchk(wfn, "out/magnesium/dimagnesocene_h4.fchk")
cubeprop(wfn, CUBEPROP_FILEPATH="/home/vulcan/cgb31826/git/Dimagnesocene/out/magnesium/dimagnesocene_h4")
