molecule fme {
0 1
symmetry c1

C
H 1 1
H 1 1 2 109.5
H 1 1 2 109.5 3 120
F 1 1.3 3 109.5 4 -120
}

optimize("ccsd/dzp")

fme.save_xyz_file("opt_test.xyz", True)
